c Sudoku solution
p cnf 729 0
133 0
148 0
194 0
218 0
245 0
335 0
363 0
388 0
478 0
516 0
525 0
547 0
562 0
584 0
617 0
628 0
558 0
661 0
679 0
539 0
736 0
749 0
754 0
781 0
897 0
487 0
913 0
423 0
921 0
966 0
942 0
272 0
773 0
571 0
593 0
283 0
985 0
974 0
876 0
957 0
727 0
938 0
868 0
765 0
712 0
834 0
829 0
815 0
798 0
882 0
999 0
237 0
431 0
414 0
632 0
492 0
446 0
644 0
653 0
843 0
851 0
341 0
264 0
111 0
319 0
291 0
226 0
324 0
122 0
352 0
259 0
156 0
167 0
175 0
189 0
377 0
396 0
455 0
469 0
686 0
695 0
